;(set-option :produce-unsat-cores true )
(set-logic ALL_SUPPORTED )
(declare-sort A$ 0 )
(declare-sort A_set$ 0 )
(declare-sort A_llist_set$ 0 )
(declare-sort A_llist_llist_set$ 0 )
(declare-sort A_llist_llist_llist_set$ 0 )
(declare-sort A_llist_llist_llist_llist_set$ 0 )
(declare-sort A_llist$ 0)
(declare-sort A_llist_llist$ 0)
(declare-sort A_llist_llist_llist$ 0)
(declare-sort A_llist_llist_llist_llist$ 0)
(declare-fun lNil$ ()A_llist$)
(declare-fun lhd$ (A_llist$)A$)
(declare-fun ltl$ (A_llist$)A_llist$)
(declare-fun lCons$ (A$ A_llist$ )A_llist$)
(declare-fun lNil$a ()A_llist_llist$)
(declare-fun lhd$a (A_llist_llist$)A_llist$)
(declare-fun ltl$a (A_llist_llist$)A_llist_llist$)
(declare-fun lCons$a (A_llist$ A_llist_llist$ )A_llist_llist$)
(declare-fun lNil$b ()A_llist_llist_llist$)
(declare-fun lhd$b (A_llist_llist_llist$)A_llist_llist$)
(declare-fun ltl$b (A_llist_llist_llist$)A_llist_llist_llist$)
(declare-fun lCons$b (A_llist_llist$ A_llist_llist_llist$ )A_llist_llist_llist$)
(declare-fun lNil$c ()A_llist_llist_llist_llist$)
(declare-fun lhd$c (A_llist_llist_llist_llist$)A_llist_llist_llist$)
(declare-fun ltl$c (A_llist_llist_llist_llist$)A_llist_llist_llist_llist$)
(declare-fun lCons$c (A_llist_llist_llist$ A_llist_llist_llist_llist$ )A_llist_llist_llist_llist$)
(declare-fun a$ ()A_set$ )
(declare-fun l$ ()A_llist$ )
(declare-fun p$ (A_llist$ )Bool )
(declare-fun xs$ ()A_llist$ )
(declare-fun lrev$ (A_llist$ )A_llist$ )
(declare-fun lrev$a (A_llist_llist_llist$ )A_llist_llist_llist$ )
(declare-fun lrev$b (A_llist_llist$ )A_llist_llist$ )
(declare-fun member$ (A_llist$ A_llist_set$ )Bool )
(declare-fun finlsts$ (A_set$ )A_llist_set$ )
(declare-fun lappend$ (A_llist$ A_llist$ )A_llist$ )
(declare-fun member$a (A_llist_llist_llist$ A_llist_llist_llist_set$ )Bool )
(declare-fun member$b (A_llist_llist$ A_llist_llist_set$ )Bool )
(declare-fun member$c (A$ A_set$ )Bool )
(declare-fun member$d (A_llist_llist_llist_llist$ A_llist_llist_llist_llist_set$ )Bool )
(declare-fun finlsts$a (A_llist_llist_set$ )A_llist_llist_llist_set$ )
(declare-fun finlsts$b (A_llist_set$ )A_llist_llist_set$ )
(declare-fun finlsts$c (A_llist_llist_llist_set$ )A_llist_llist_llist_llist_set$ )
(declare-fun lappend$a (A_llist_llist_llist$ A_llist_llist_llist$ )A_llist_llist_llist$ )
(declare-fun lappend$b (A_llist_llist$ A_llist_llist$ )A_llist_llist$ )
(assert (! (not (p$ xs$ )):named a0 ))
(assert (! (p$ (lrev$ l$ )):named a1 ))
(assert (! (= l$ (lrev$ xs$ )):named a2 ))
(assert (! (member$ xs$ (finlsts$ a$ )):named a3 ))
(assert (! (member$ l$ (finlsts$ a$ )):named a4 ))
(assert (! (p$ lNil$ ):named a5 ))
(assert (! (forall ((?v0 A_llist_llist_llist$ )(?v1 A_llist_llist_set$ ))(=> (member$a ?v0 (finlsts$a ?v1 ))(member$a (lrev$a ?v0 )(finlsts$a ?v1 )))):named a6 ))
(assert (! (forall ((?v0 A_llist_llist$ )(?v1 A_llist_set$ ))(=> (member$b ?v0 (finlsts$b ?v1 ))(member$b (lrev$b ?v0 )(finlsts$b ?v1 )))):named a7 ))
(assert (! (forall ((?v0 A_llist$ )(?v1 A_set$ ))(=> (member$ ?v0 (finlsts$ ?v1 ))(member$ (lrev$ ?v0 )(finlsts$ ?v1 )))):named a8 ))
(assert (! (forall ((?v0 A_llist$ )(?v1 A$ ))(=> (and (member$ ?v0 (finlsts$ a$ ))(and (p$ ?v0 )(member$c ?v1 a$ )))(p$ (lappend$ ?v0 (lCons$ ?v1 lNil$ ))))):named a9 ))
(assert (! (forall ((?v0 A_llist_llist_llist$ )(?v1 A_llist_llist_llist$ ))(= (= lNil$b (lappend$a ?v0 ?v1 ))(and (= ?v0 lNil$b )(= ?v1 lNil$b )))):named a10 ))
(assert (! (forall ((?v0 A_llist_llist$ )(?v1 A_llist_llist$ ))(= (= lNil$a (lappend$b ?v0 ?v1 ))(and (= ?v0 lNil$a )(= ?v1 lNil$a )))):named a11 ))
(assert (! (forall ((?v0 A_llist$ )(?v1 A_llist$ ))(= (= lNil$ (lappend$ ?v0 ?v1 ))(and (= ?v0 lNil$ )(= ?v1 lNil$ )))):named a12 ))
(assert (! (forall ((?v0 A_llist_llist_llist$ )(?v1 A_llist_llist_llist$ ))(= (= (lappend$a ?v0 ?v1 )lNil$b )(and (= ?v0 lNil$b )(= ?v1 lNil$b )))):named a13 ))
(assert (! (forall ((?v0 A_llist_llist$ )(?v1 A_llist_llist$ ))(= (= (lappend$b ?v0 ?v1 )lNil$a )(and (= ?v0 lNil$a )(= ?v1 lNil$a )))):named a14 ))
(assert (! (forall ((?v0 A_llist$ )(?v1 A_llist$ ))(= (= (lappend$ ?v0 ?v1 )lNil$ )(and (= ?v0 lNil$ )(= ?v1 lNil$ )))):named a15 ))
(assert (! (forall ((?v0 A_llist_llist_llist$ )(?v1 A_llist_llist_llist$ )(?v2 A_llist_llist_set$ ))(= (member$a (lappend$a ?v0 ?v1 )(finlsts$a ?v2 ))(and (member$a ?v0 (finlsts$a ?v2 ))(member$a ?v1 (finlsts$a ?v2 ))))):named a16 ))
(assert (! (forall ((?v0 A_llist_llist$ )(?v1 A_llist_llist$ )(?v2 A_llist_set$ ))(= (member$b (lappend$b ?v0 ?v1 )(finlsts$b ?v2 ))(and (member$b ?v0 (finlsts$b ?v2 ))(member$b ?v1 (finlsts$b ?v2 ))))):named a17 ))
(assert (! (forall ((?v0 A_llist$ )(?v1 A_llist$ )(?v2 A_set$ ))(= (member$ (lappend$ ?v0 ?v1 )(finlsts$ ?v2 ))(and (member$ ?v0 (finlsts$ ?v2 ))(member$ ?v1 (finlsts$ ?v2 ))))):named a18 ))
(assert (! (forall ((?v0 A_llist_llist_llist$ )(?v1 A_llist_llist_set$ )(?v2 A_llist_llist_llist$ )(?v3 A_llist_llist_llist$ ))(=> (member$a ?v0 (finlsts$a ?v1 ))(= (= (lappend$a ?v0 ?v2 )(lappend$a ?v0 ?v3 ))(= ?v2 ?v3 )))):named a19 ))
(assert (! (forall ((?v0 A_llist_llist$ )(?v1 A_llist_set$ )(?v2 A_llist_llist$ )(?v3 A_llist_llist$ ))(=> (member$b ?v0 (finlsts$b ?v1 ))(= (= (lappend$b ?v0 ?v2 )(lappend$b ?v0 ?v3 ))(= ?v2 ?v3 )))):named a20 ))
(assert (! (forall ((?v0 A_llist$ )(?v1 A_set$ )(?v2 A_llist$ )(?v3 A_llist$ ))(=> (member$ ?v0 (finlsts$ ?v1 ))(= (= (lappend$ ?v0 ?v2 )(lappend$ ?v0 ?v3 ))(= ?v2 ?v3 )))):named a21 ))
(assert (! (= (lrev$a lNil$b )lNil$b ):named a22 ))
(assert (! (= (lrev$b lNil$a )lNil$a ):named a23 ))
(assert (! (= (lrev$ lNil$ )lNil$ ):named a24 ))
(assert (! (forall ((?v0 A_llist_llist_llist$ )(?v1 A_llist_llist_set$ )(?v2 A_llist_llist$ ))(=> (member$a ?v0 (finlsts$a ?v1 ))(= (lrev$a (lCons$b ?v2 ?v0 ))(lappend$a (lrev$a ?v0 )(lCons$b ?v2 lNil$b ))))):named a25 ))
(assert (! (forall ((?v0 A_llist_llist$ )(?v1 A_llist_set$ )(?v2 A_llist$ ))(=> (member$b ?v0 (finlsts$b ?v1 ))(= (lrev$b (lCons$a ?v2 ?v0 ))(lappend$b (lrev$b ?v0 )(lCons$a ?v2 lNil$a ))))):named a26 ))
(assert (! (forall ((?v0 A_llist$ )(?v1 A_set$ )(?v2 A$ ))(=> (member$ ?v0 (finlsts$ ?v1 ))(= (lrev$ (lCons$ ?v2 ?v0 ))(lappend$ (lrev$ ?v0 )(lCons$ ?v2 lNil$ ))))):named a27 ))
(assert (! (forall ((?v0 A_llist_llist_llist_llist$ )(?v1 A_llist_llist_llist_set$ ))(= (member$d ?v0 (finlsts$c ?v1 ))(or (= ?v0 lNil$c )(exists ((?v2 A_llist_llist_llist_llist$ )(?v3 A_llist_llist_llist$ ))(and (= ?v0 (lCons$c ?v3 ?v2 ))(and (member$d ?v2 (finlsts$c ?v1 ))(member$a ?v3 ?v1 ))))))):named a28 ))
(assert (! (forall ((?v0 A_llist_llist_llist$ )(?v1 A_llist_llist_set$ ))(= (member$a ?v0 (finlsts$a ?v1 ))(or (= ?v0 lNil$b )(exists ((?v2 A_llist_llist_llist$ )(?v3 A_llist_llist$ ))(and (= ?v0 (lCons$b ?v3 ?v2 ))(and (member$a ?v2 (finlsts$a ?v1 ))(member$b ?v3 ?v1 ))))))):named a29 ))
(assert (! (forall ((?v0 A_llist_llist$ )(?v1 A_llist_set$ ))(= (member$b ?v0 (finlsts$b ?v1 ))(or (= ?v0 lNil$a )(exists ((?v2 A_llist_llist$ )(?v3 A_llist$ ))(and (= ?v0 (lCons$a ?v3 ?v2 ))(and (member$b ?v2 (finlsts$b ?v1 ))(member$ ?v3 ?v1 ))))))):named a30 ))
(assert (! (forall ((?v0 A_llist$ )(?v1 A_set$ ))(= (member$ ?v0 (finlsts$ ?v1 ))(or (= ?v0 lNil$ )(exists ((?v2 A_llist$ )(?v3 A$ ))(and (= ?v0 (lCons$ ?v3 ?v2 ))(and (member$ ?v2 (finlsts$ ?v1 ))(member$c ?v3 ?v1 ))))))):named a31 ))
(assert (! (forall ((?v0 A_llist_llist_llist$ ))(=> (and (=> (= ?v0 lNil$b )false )(forall ((?v1 A_llist_llist$ )(?v2 A_llist_llist_llist$ ))(=> (= ?v0 (lCons$b ?v1 ?v2 ))false )))false )):named a32 ))
(assert (! (forall ((?v0 A_llist_llist$ ))(=> (and (=> (= ?v0 lNil$a )false )(forall ((?v1 A_llist$ )(?v2 A_llist_llist$ ))(=> (= ?v0 (lCons$a ?v1 ?v2 ))false )))false )):named a33 ))
(assert (! (forall ((?v0 A_llist$ ))(=> (and (=> (= ?v0 lNil$ )false )(forall ((?v1 A$ )(?v2 A_llist$ ))(=> (= ?v0 (lCons$ ?v1 ?v2 ))false )))false )):named a34 ))
(assert (! (forall ((?v0 A_llist_llist_llist$ )(?v1 A_llist_llist_llist$ )(?v2 A_llist_llist_set$ ))(=> (member$a (lappend$a ?v0 ?v1 )(finlsts$a ?v2 ))(member$a ?v0 (finlsts$a ?v2 )))):named a35 ))
(assert (! (forall ((?v0 A_llist_llist$ )(?v1 A_llist_llist$ )(?v2 A_llist_set$ ))(=> (member$b (lappend$b ?v0 ?v1 )(finlsts$b ?v2 ))(member$b ?v0 (finlsts$b ?v2 )))):named a36 ))
(assert (! (forall ((?v0 A_llist$ )(?v1 A_llist$ )(?v2 A_set$ ))(=> (member$ (lappend$ ?v0 ?v1 )(finlsts$ ?v2 ))(member$ ?v0 (finlsts$ ?v2 )))):named a37 ))
(assert (! (forall ((?v0 A_llist_llist_llist_llist$ )(?v1 A_llist_llist_llist_set$ ))(=> (and (member$d ?v0 (finlsts$c ?v1 ))(and (=> (= ?v0 lNil$c )false )(forall ((?v2 A_llist_llist_llist_llist$ )(?v3 A_llist_llist_llist$ ))(=> (and (= ?v0 (lCons$c ?v3 ?v2 ))(and (member$d ?v2 (finlsts$c ?v1 ))(member$a ?v3 ?v1 )))false ))))false )):named a38 ))
(assert (! (forall ((?v0 A_llist_llist_llist$ )(?v1 A_llist_llist_set$ ))(=> (and (member$a ?v0 (finlsts$a ?v1 ))(and (=> (= ?v0 lNil$b )false )(forall ((?v2 A_llist_llist_llist$ )(?v3 A_llist_llist$ ))(=> (and (= ?v0 (lCons$b ?v3 ?v2 ))(and (member$a ?v2 (finlsts$a ?v1 ))(member$b ?v3 ?v1 )))false ))))false )):named a39 ))
(assert (! (forall ((?v0 A_llist_llist$ )(?v1 A_llist_set$ ))(=> (and (member$b ?v0 (finlsts$b ?v1 ))(and (=> (= ?v0 lNil$a )false )(forall ((?v2 A_llist_llist$ )(?v3 A_llist$ ))(=> (and (= ?v0 (lCons$a ?v3 ?v2 ))(and (member$b ?v2 (finlsts$b ?v1 ))(member$ ?v3 ?v1 )))false ))))false )):named a40 ))
(assert (! (forall ((?v0 A_llist$ )(?v1 A_set$ ))(=> (and (member$ ?v0 (finlsts$ ?v1 ))(and (=> (= ?v0 lNil$ )false )(forall ((?v2 A_llist$ )(?v3 A$ ))(=> (and (= ?v0 (lCons$ ?v3 ?v2 ))(and (member$ ?v2 (finlsts$ ?v1 ))(member$c ?v3 ?v1 )))false ))))false )):named a41 ))
(check-sat )
;(get-unsat-core )
